(set-logic QF_S)
(declare-fun var0 () String)
(declare-fun var1 () Int)
(declare-fun var2 () String)
(declare-fun var3 () String)
(declare-fun var4 () String)
(declare-fun var5 () Int)
(declare-fun var6 () Int)
(declare-fun var7 () Int)
(assert (str.contains (str.replace (str.at var0 var1) (str.replace var2 var3 var4) (str.at var2 var5)) (str.substr (str.at var4 var6) (str.len var0) (str.len var3))))
(assert (str.contains var4 var0))
(assert (str.contains (str.at var3 var7) (str.substr var3 var5 var7)))
(assert (str.contains (str.replace var3 var4 var2) (str.replace var2 var4 var0)))
(check-sat)